projected/problems_b25_r0_d7_m100_s666/_DIMACS/b25_d7_r0_s666_002.cnf
p cnf 184 251 24
c p show 1 2 3 4 5 6 7 8 9 10 11 12 13 14 15 16 17 18 19 20 21 22 23 24
-181 22 9 0
-182 -18 -5 0
-183 182 0
-183 181 0
-184 8 0
-184 -4 0
-25 -16 0
-25 -2 0
-26 25 0
-26 184 0
-27 26 183 0
-28 -2 -24 0
-29 -2 0
-29 -14 0
-30 14 0
-30 2 0
-31 30 29 0
-32 31 0
-32 28 0
-33 18 0
-33 -6 0
-34 5 -8 0
-35 34 33 0
-36 35 32 0
-37 36 0
-37 27 0
-38 -14 0
-38 -16 0
-39 -2 0
-39 21 0
-40 -21 0
-40 2 0
-41 40 39 0
-42 41 38 0
-43 24 0
-43 5 0
-44 -22 -10 0
-45 44 43 0
-46 45 0
-46 42 0
-47 20 -5 0
-48 -6 -10 0
-49 48 0
-49 47 0
-50 9 0
-50 -4 0
-51 17 0
-51 -23 0
-52 51 50 0
-53 52 49 0
-54 53 46 0
-55 54 37 0
-56 -15 0
-56 -8 0
-57 9 0
-57 24 0
-58 57 56 0
-59 -9 -24 0
-60 15 8 0
-61 60 59 0
-62 61 0
-62 58 0
-63 15 0
-63 14 0
-64 15 -10 0
-65 64 0
-65 63 0
-66 65 0
-66 62 0
-67 5 0
-67 12 0
-68 24 18 0
-69 68 67 0
-70 -19 11 0
-71 -10 7 0
-72 71 70 0
-73 72 0
-73 69 0
-74 73 66 0
-75 -17 0
-75 3 0
-76 -9 0
-76 -21 0
-77 76 0
-77 75 0
-78 -7 0
-78 18 0
-79 6 16 0
-80 79 78 0
-81 80 0
-81 77 0
-82 -9 -21 0
-83 14 0
-83 20 0
-84 83 82 0
-85 -14 -20 0
-86 9 0
-86 21 0
-87 86 85 0
-88 87 0
-88 84 0
-89 9 -8 0
-90 8 0
-90 -10 0
-91 90 89 0
-92 91 0
-92 88 0
-93 -9 0
-93 8 0
-94 -8 10 0
-95 94 0
-95 93 0
-96 85 0
-96 86 0
-97 82 0
-97 83 0
-98 97 96 0
-99 98 0
-99 95 0
-100 99 92 0
-101 100 0
-101 81 0
-102 101 74 0
-103 102 55 0
-104 -17 -24 0
-105 20 0
-105 -15 0
-106 105 104 0
-107 6 0
-107 4 0
-108 -7 0
-108 -3 0
-109 108 107 0
-110 109 106 0
-111 4 -23 0
-112 -24 0
-112 19 0
-113 112 111 0
-114 21 0
-114 -2 0
-115 8 0
-115 -6 0
-116 115 114 0
-117 116 0
-117 113 0
-118 117 110 0
-119 8 0
-119 12 0
-120 -17 -22 0
-121 120 119 0
-122 7 4 0
-123 -19 0
-123 1 0
-124 123 0
-124 122 0
-125 124 121 0
-126 23 -10 0
-127 -3 16 0
-128 127 126 0
-129 -15 0
-129 19 0
-130 13 0
-130 11 0
-131 -11 0
-131 -13 0
-132 131 130 0
-133 132 0
-133 129 0
-134 133 0
-134 128 0
-135 134 125 0
-136 135 118 0
-137 -1 0
-137 11 0
-138 -11 0
-138 1 0
-139 138 137 0
-140 15 0
-140 -21 0
-141 140 139 0
-142 6 -13 0
-143 7 -14 0
-144 143 0
-144 142 0
-145 -7 0
-145 14 0
-146 -6 0
-146 13 0
-147 146 0
-147 145 0
-148 147 144 0
-149 148 141 0
-150 7 0
-150 17 0
-151 -2 0
-151 19 0
-152 151 0
-152 150 0
-153 -20 24 0
-154 -24 20 0
-155 154 0
-155 153 0
-156 -19 0
-156 -9 0
-157 156 155 0
-158 157 152 0
-159 158 0
-159 149 0
-160 18 -17 0
-161 19 11 0
-162 161 160 0
-163 -16 9 0
-164 23 0
-164 5 0
-165 -5 0
-165 -23 0
-166 165 164 0
-167 166 163 0
-168 167 162 0
-169 -7 6 0
-170 -6 7 0
-171 170 0
-171 169 0
-172 18 0
-172 21 0
-173 172 0
-173 171 0
-174 -16 0
-174 -23 0
-175 -14 -7 0
-176 175 174 0
-177 176 0
-177 173 0
-178 177 168 0
-179 178 159 0
-180 179 136 0
180 103 0
-59 -57 0
-60 -56 0
-56 -60 0
-93 -89 0
-89 -93 0
-90 -94 0
-91 -95 0
-85 -83 0
-82 -86 0
-88 -98 0
-98 -88 0
-145 -143 0
-143 -145 0
-146 -142 0
